NAME : debug
COMMENT : (debug, Min no of trucks: 3, Optimal value: 68)
TYPE : CVRP
DIMENSION : 4
EDGE_WEIGHT_TYPE : EUC_2D 
CAPACITY : 30
NODE_COORD_SECTION 
 1 0 0
 2 0 10
 3 10 10
 4 10 0
DEMAND_SECTION 
1 0 
2 15 
3 20 
4 30 
DEPOT_SECTION 
 1  
 -1  
EOF 
